column=9;
row=9;
left=[3, 0, 0, 2, 0, 0, 0, 0, 6];
right=[0, 2, 4, 2, 3, 0, 4, 5, 0];
top=[2, 0, 4, 0, 0, 3, 1, 4, 0];
bottom=[0, 0, 0, 5, 0, 2, 3, 0, 1];
Board=[|5,8,0,1,0,0,9,0,0|1,0,4,9,2,7,5,0,8|9,0,2,0,0,3,0,0,4|0,1,0,4,3,0,2,0,0|0,0,9,0,6,0,0,0,3|0,2,0,7,0,0,4,0,0|6,4,0,0,0,0,8,0,0|0,0,8,6,0,0,0,5,0|2,0,1,0,7,8,0,0,9|]